NAME : ct_7_n_4_k10_t_70
COMMENT : (ct_7_n_4_k10_t_70, Min no of trucks: 4, Optimal value: 89.34197234912327, Split: Yes)
TYPE : SDVRP
DIMENSION : 8
EDGE_WEIGHT_TYPE : EUC_2D
CAPACITY : 10
NODE_COORD_SECTION
1 0 0
2 2 4
3 8 1
4 -1 -10
5 -5 -6
6 -7 5
7 10 -6
8 -11 -5
DEMAND_SECTION
1 0
2 3.9
3 4.9
4 3.0
5 2.6
6 3.6
7 5.4
8 4.6
DEPOT_SECTION
 1
EOF